Problem:    
Rows:       256
Columns:    89 (72 integer, 72 binary)
Non-zeros:  960
Status:     INTEGER OPTIMAL
Objective:  value = 70.311951 (MINimum)

   No.   Row name        Activity     Lower bound   Upper bound
------ ------------    ------------- ------------- -------------
     1 r.5                   1070.31             0               
     2 r.6                  -978.099      -984.225               
     3 r.7                    70.312             0               
     4 r.8                  -980.265      -986.391               
     5 r.9                    70.312             0               
     6 r.10                   50.713       -982.67               
     7 r.11                  1070.31             0               
     8 r.12                 -949.287      -986.618               
     9 r.13                   70.312             0               
    10 r.14                   50.713      -972.321               
    11 r.15                  1070.31             0               
    12 r.16                 -962.669      -981.452               
    13 r.17                   70.312             0               
    14 r.18                  18.7827      -985.094               
    15 r.19                  1070.31             0               
    16 r.20                  -984.03      -990.155               
    17 r.21                  1070.31             0               
    18 r.22                 -964.387      -986.288               
    19 r.23                   70.312             0               
    20 r.24                  38.7596      -989.655               
    21 r.25                  1070.31             0               
    22 r.26                 -998.817      -998.817               
    23 r.27                   70.312             0               
    24 r.28                   10.624      -991.963               
    25 r.29                  1070.31             0               
    26 r.30                 -929.688      -966.948               
    27 r.31                   70.312             0               
    28 r.32                   70.312      -980.409               
    29 r.33                   70.312             0               
    30 r.34                   70.312      -966.726               
    31 r.35                  1070.31             0               
    32 r.36                 -929.688      -980.401               
    33 r.37                        1             1             = 
    34 r.38                        1             1             = 
    35 r.39                        1             1             = 
    36 r.40                        1             1             = 
    37 r.41                        1             1             = 
    38 r.42                        1             1             = 
    39 r.43                        1             1             = 
    40 r.44                        1             1             = 
    41 r.45                     1001             2               
    42 r.46                    -1001         -1001               
    43 r.47                  2028.81       -982.67               
    44 r.48                     1001             2               
    45 r.49                    -1001         -1001               
    46 r.50                  3030.98      -986.618               
    47 r.51                     1001             2               
    48 r.52                    -1001         -1001               
    49 r.53                  2028.81      -972.321               
    50 r.54                     1001             2               
    51 r.55                    -1001         -1001               
    52 r.56                   3017.6      -981.452               
    53 r.57                     1001             2               
    54 r.58                    -1001         -1001               
    55 r.59                  1996.88      -985.094               
    56 r.60                     1001             2               
    57 r.61                    -1001         -1001               
    58 r.62                  2996.24      -990.155               
    59 r.63                        2             2               
    60 r.64                       -2         -1001               
    61 r.65                 -986.288      -986.288               
    62 r.66                     1000             2               
    63 r.67                    -1000         -1001               
    64 r.68                  3019.02      -989.655               
    65 r.69                 -984.225      -984.225               
    66 r.70                 -986.391      -986.391               
    67 r.71                 -984.225      -984.225               
    68 r.72                 -986.391      -986.391               
    69 r.73                 -951.589      -966.948               
    70 r.74                  48.4113      -980.409               
    71 r.75                  50.5771      -966.948               
    72 r.76                  1050.58      -980.409               
    73 r.77                     1001             2               
    74 r.78                    -1001         -1001               
    75 r.79                  2048.41      -966.726               
    76 r.80                     1001             2               
    77 r.81                    -1001         -1001               
    78 r.82                  3050.58      -980.401               
    79 r.83                     1001             2               
    80 r.84                    -1001         -1001               
    81 r.85                  1971.19        15.775               
    82 r.86                     1001             2               
    83 r.87                    -1001         -1001               
    84 r.88                  969.022       13.6092               
    85 r.89                     1000             2               
    86 r.90                    -1000         -1001               
    87 r.91                     2000      -972.321               
    88 r.92                        2             2               
    89 r.93                       -2         -1001               
    90 r.94                  -13.382      -981.452               
    91 r.95                     1000             2               
    92 r.96                    -1000         -1001               
    93 r.97                  1968.07      -985.094               
    94 r.98                        2             2               
    95 r.99                       -2         -1001               
    96 r.100                -34.7426      -990.155               
    97 r.101                    1001             2               
    98 r.102                   -1001         -1001               
    99 r.103                  1984.9      -986.288               
   100 r.104                    1001             2               
   101 r.105                   -1001         -1001               
   102 r.106                 1988.05      -989.655               
   103 r.107                 44.5873       -982.67               
   104 r.108                -955.413      -986.618               
   105 r.109                 44.5873       -982.67               
   106 r.110                -955.413      -986.618               
   107 r.111                    1001             2               
   108 r.112                   -1001         -1001               
   109 r.113                  2019.6      -966.948               
   110 r.114                    1001             2               
   111 r.115                   -1001         -1001               
   112 r.116                  2019.6      -980.409               
   113 r.117                  19.599      -966.726               
   114 r.118                -980.401      -980.401               
   115 r.119                  19.599      -966.726               
   116 r.120                -980.401      -980.401               
   117 r.121                    1001             2               
   118 r.122                   -1001         -1001               
   119 r.123                 1971.19        15.775               
   120 r.124                    1001             2               
   121 r.125                   -1001         -1001               
   122 r.126                 982.404       13.6092               
   123 r.127                    1000             2               
   124 r.128                   -1000         -1001               
   125 r.129                    2000       17.3301               
   126 r.130                       2             2               
   127 r.131                      -2         -1001               
   128 r.132                  13.382        13.382               
   129 r.133                 31.9303      -972.321               
   130 r.134                -981.452      -981.452               
   131 r.135                 34.7426      -972.321               
   132 r.136                -978.639      -981.452               
   133 r.137                    1001             2               
   134 r.138                   -1001         -1001               
   135 r.139                  1984.9      -986.288               
   136 r.140                    1001             2               
   137 r.141                   -1001         -1001               
   138 r.142                 2001.43      -989.655               
   139 r.143                 44.5873      -972.321               
   140 r.144                -968.795      -981.452               
   141 r.145                 44.5873      -972.321               
   142 r.146                -968.795      -981.452               
   143 r.147                    1001             2               
   144 r.148                   -1001         -1001               
   145 r.149                  2019.6      -966.948               
   146 r.150                    1001             2               
   147 r.151                   -1001         -1001               
   148 r.152                 2032.98      -980.409               
   149 r.153                  19.599      -966.726               
   150 r.154                -980.401      -980.401               
   151 r.155                  32.981      -966.726               
   152 r.156                -967.019      -980.401               
   153 r.157                    1001             2               
   154 r.158                   -1001         -1001               
   155 r.159                 2003.12        15.775               
   156 r.160                    1001             2               
   157 r.161                   -1001         -1001               
   158 r.162                 1003.76       13.6092               
   159 r.163                    1000             2               
   160 r.164                   -1000         -1001               
   161 r.165                 2031.93       17.3301               
   162 r.166                       2             2               
   163 r.167                      -2         -1001               
   164 r.168                 34.7426        13.382               
   165 r.169                    1001             2               
   166 r.170                   -1001         -1001               
   167 r.171                 2016.83      -986.288               
   168 r.172                    1001             2               
   169 r.173                   -1001         -1001               
   170 r.174                 2022.79      -989.655               
   171 r.175                  12.657      -985.094               
   172 r.176                -990.155      -990.155               
   173 r.177                  12.657      -985.094               
   174 r.178                -990.155      -990.155               
   175 r.179                    1001             2               
   176 r.180                   -1001         -1001               
   177 r.181                 2051.53      -966.948               
   178 r.182                    1001             2               
   179 r.183                   -1001         -1001               
   180 r.184                 2054.34      -980.409               
   181 r.185                 51.5293      -966.726               
   182 r.186                -948.471      -980.401               
   183 r.187                 54.3416      -966.726               
   184 r.188                -945.658      -980.401               
   185 r.189                       2             2               
   186 r.190                      -2         -1001               
   187 r.191                 984.641        15.775               
   188 r.192                    1000             2               
   189 r.193                   -1000         -1001               
   190 r.194                 982.475       13.6092               
   191 r.195                    1001             2               
   192 r.196                   -1001         -1001               
   193 r.197                 2013.45       17.3301               
   194 r.198                    1001             2               
   195 r.199                   -1001         -1001               
   196 r.200                 2013.45        13.382               
   197 r.201                    1001             2               
   198 r.202                   -1001         -1001               
   199 r.203                 2013.45       27.6794               
   200 r.204                    1001             2               
   201 r.205                   -1001         -1001               
   202 r.206                 2000.07       18.5483               
   203 r.207                    1001             2               
   204 r.208                   -1001         -1001               
   205 r.209                 1981.52       14.9061               
   206 r.210                    1001             2               
   207 r.211                   -1001         -1001               
   208 r.212                 1978.71        9.8447               
   209 r.213                -970.513      -986.288               
   210 r.214                 32.6339      -989.655               
   211 r.215                -970.513      -986.288               
   212 r.216                 32.6339      -989.655               
   213 r.217                -966.948      -966.948               
   214 r.218                 33.0518      -980.409               
   215 r.219                -966.948      -966.948               
   216 r.220                 33.0518      -980.409               
   217 r.221                 33.0518      -966.726               
   218 r.222                -966.948      -980.401               
   219 r.223                 33.0518      -966.726               
   220 r.224                -966.948      -980.401               
   221 r.225                    1001             2               
   222 r.226                   -1001         -1001               
   223 r.227                  1980.4       17.3301               
   224 r.228                    1001             2               
   225 r.229                   -1001         -1001               
   226 r.230                  1980.4        13.382               
   227 r.231                    1001             2               
   228 r.232                   -1001         -1001               
   229 r.233                  1980.4       27.6794               
   230 r.234                    1001             2               
   231 r.235                   -1001         -1001               
   232 r.236                 1967.02       18.5483               
   233 r.237                    1001             2               
   234 r.238                   -1001         -1001               
   235 r.239                 1948.47       14.9061               
   236 r.240                    1001             2               
   237 r.241                   -1001         -1001               
   238 r.242                 1945.66        9.8447               
   239 r.243                    1001             2               
   240 r.244                   -1001         -1001               
   241 r.245                    2000      -966.726               
   242 r.246                    1001             2               
   243 r.247                   -1001         -1001               
   244 r.248                    2000      -980.401               
   245 r.249                    1001             2               
   246 r.250                   -1001         -1001               
   247 r.251                 1951.59        15.775               
   248 r.252                    1001             2               
   249 r.253                   -1001         -1001               
   250 r.254                 949.423       13.6092               
   251 r.255                    1001             2               
   252 r.256                   -1001         -1001               
   253 r.257                    2000       33.0518               
   254 r.258                    1001             2               
   255 r.259                   -1001         -1001               
   256 r.260                    2000       19.5906               

   No. Column name       Activity     Lower bound   Upper bound
------ ------------    ------------- ------------- -------------
     1 tt                     70.312             0               
     2 s_1_1        *              1             0             1 
     3 t_1_1                 48.4113             0               
     4 s_1_7        *              1             0             1 
     5 s_2_1        *              0             0             1 
     6 t_2_1                 1050.58             0               
     7 s_2_7        *              0             0             1 
     8 s_1_2        *              0             0             1 
     9 t_1_2                  19.599             0               
    10 s_1_8        *              0             0             1 
    11 s_2_2        *              1             0             1 
    12 t_2_2                  19.599             0               
    13 s_2_8        *              1             0             1 
    14 s_1_3        *              0             0             1 
    15 t_1_3                  19.599             0               
    16 s_2_3        *              1             0             1 
    17 t_2_3                  32.981             0               
    18 s_1_4        *              0             0             1 
    19 t_1_4                 51.5293             0               
    20 s_2_4        *              1             0             1 
    21 t_2_4                 54.3416             0               
    22 s_1_5        *              1             0             1 
    23 t_1_5                 33.0518             0               
    24 s_2_5        *              0             0             1 
    25 t_2_5                 33.0518             0               
    26 s_1_6        *              1             0             1 
    27 t_1_6                 64.1863             0               
    28 s_2_6        *              0             0             1 
    29 t_2_6                 64.1863             0               
    30 t_1_7                       0             0               
    31 t_2_7                       0             0               
    32 t_1_8                       0             0               
    33 t_2_8                       0             0               
    34 r_1_1_2      *              1             0             1 
    35 u_1_1_2      *              0             0             1 
    36 r_2_1_2      *              1             0             1 
    37 u_2_1_2      *              0             0             1 
    38 r_1_1_3      *              1             0             1 
    39 u_1_1_3      *              0             0             1 
    40 r_2_1_3      *              1             0             1 
    41 u_2_1_3      *              0             0             1 
    42 r_1_1_4      *              1             0             1 
    43 u_1_1_4      *              0             0             1 
    44 r_2_1_4      *              1             0             1 
    45 u_2_1_4      *              0             0             1 
    46 r_1_1_5      *              0             0             1 
    47 u_1_1_5      *              1             0             1 
    48 r_2_1_5      *              1             0             1 
    49 u_2_1_5      *              0             0             1 
    50 r_1_1_8      *              1             0             1 
    51 u_1_1_8      *              0             0             1 
    52 r_2_1_8      *              1             0             1 
    53 u_2_1_8      *              0             0             1 
    54 r_1_2_3      *              1             0             1 
    55 u_1_2_3      *              0             0             1 
    56 r_2_2_3      *              0             0             1 
    57 u_2_2_3      *              0             0             1 
    58 r_1_2_4      *              1             0             1 
    59 u_1_2_4      *              0             0             1 
    60 r_2_2_4      *              0             0             1 
    61 u_2_2_4      *              0             0             1 
    62 r_1_2_5      *              1             0             1 
    63 u_1_2_5      *              0             0             1 
    64 r_2_2_5      *              1             0             1 
    65 u_2_2_5      *              0             0             1 
    66 r_1_2_7      *              1             0             1 
    67 u_1_2_7      *              0             0             1 
    68 r_2_2_7      *              1             0             1 
    69 u_2_2_7      *              0             0             1 
    70 r_1_3_5      *              1             0             1 
    71 u_1_3_5      *              0             0             1 
    72 r_2_3_5      *              1             0             1 
    73 u_2_3_5      *              0             0             1 
    74 r_1_3_7      *              1             0             1 
    75 u_1_3_7      *              0             0             1 
    76 r_2_3_7      *              1             0             1 
    77 u_2_3_7      *              0             0             1 
    78 r_1_4_5      *              1             0             1 
    79 u_1_4_5      *              0             0             1 
    80 r_2_4_5      *              1             0             1 
    81 u_2_4_5      *              0             0             1 
    82 r_1_4_7      *              1             0             1 
    83 u_1_4_7      *              0             0             1 
    84 r_2_4_7      *              1             0             1 
    85 u_2_4_7      *              0             0             1 
    86 r_1_7_8      *              1             0             1 
    87 u_1_7_8      *              0             0             1 
    88 r_2_7_8      *              1             0             1 
    89 u_2_7_8      *              0             0             1 

Integer feasibility conditions:

KKT.PE: max.abs.err = 2.27e-13 on row 2
        max.rel.err = 1.10e-16 on row 12
        High quality

KKT.PB: max.abs.err = 2.27e-13 on row 61
        max.rel.err = 2.47e-16 on row 128
        High quality

End of output
